\ This file has been generated by DOcplex
\ ENCODING=ISO-8859-1
\Problem name: GAP

Minimize
 obj: 26 x_0_0 + 35 x_0_1 + 13 x_0_2 + 21 x_0_3 + 21 x_0_4 + 12 x_0_5 + 29 x_0_6
      + 19 x_0_7 + 30 x_0_8 + 50 x_0_9 + 11 x_0_10 + 46 x_0_11 + 34 x_0_12
      + 14 x_0_13 + 29 x_0_14 + 30 x_0_15 + 34 x_0_16 + 28 x_0_17 + 21 x_0_18
      + 29 x_0_19 + 16 x_0_20 + 15 x_0_21 + 10 x_0_22 + 14 x_0_23 + 33 x_0_24
      + 19 x_0_25 + 30 x_0_26 + 38 x_0_27 + 14 x_0_28 + 42 x_0_29 + 20 x_0_30
      + 17 x_0_31 + 47 x_0_32 + 35 x_0_33 + 13 x_0_34 + 21 x_0_35 + 10 x_0_36
      + 25 x_0_37 + 17 x_0_38 + 41 x_0_39 + 29 x_0_40 + 24 x_0_41 + 26 x_0_42
      + 36 x_0_43 + 26 x_0_44 + 20 x_0_45 + 19 x_0_46 + 42 x_0_47 + 40 x_0_48
      + 49 x_0_49 + 24 x_0_50 + 16 x_0_51 + 35 x_0_52 + 10 x_0_53 + 46 x_0_54
      + 42 x_0_55 + 21 x_0_56 + 50 x_0_57 + 29 x_0_58 + 34 x_0_59 + 13 x_0_60
      + 37 x_0_61 + 16 x_0_62 + 41 x_0_63 + 41 x_0_64 + 10 x_0_65 + 23 x_0_66
      + 17 x_0_67 + 41 x_0_68 + 36 x_0_69 + 45 x_0_70 + 40 x_0_71 + 15 x_0_72
      + 31 x_0_73 + 16 x_0_74 + 33 x_0_75 + 24 x_0_76 + 35 x_0_77 + 41 x_0_78
      + 15 x_0_79 + 26 x_0_80 + 44 x_0_81 + 15 x_0_82 + 45 x_0_83 + 27 x_0_84
      + 19 x_0_85 + 46 x_0_86 + 18 x_0_87 + 32 x_0_88 + 41 x_0_89 + 42 x_0_90
      + 26 x_0_91 + 25 x_0_92 + 43 x_0_93 + 15 x_0_94 + 20 x_0_95 + 12 x_0_96
      + 12 x_0_97 + 50 x_0_98 + 18 x_0_99 + 24 x_1_0 + 43 x_1_1 + 25 x_1_2
      + 36 x_1_3 + 39 x_1_4 + 49 x_1_5 + 14 x_1_6 + 42 x_1_7 + 40 x_1_8
      + 16 x_1_9 + 50 x_1_10 + 43 x_1_11 + 38 x_1_12 + 30 x_1_13 + 40 x_1_14
      + 25 x_1_15 + 18 x_1_16 + 31 x_1_17 + 32 x_1_18 + 15 x_1_19 + 14 x_1_20
      + 35 x_1_21 + 35 x_1_22 + 17 x_1_23 + 38 x_1_24 + 30 x_1_25 + 17 x_1_26
      + 34 x_1_27 + 50 x_1_28 + 21 x_1_29 + 13 x_1_30 + 37 x_1_31 + 16 x_1_32
      + 28 x_1_33 + 49 x_1_34 + 27 x_1_35 + 32 x_1_36 + 24 x_1_37 + 45 x_1_38
      + 30 x_1_39 + 33 x_1_40 + 32 x_1_41 + 10 x_1_42 + 31 x_1_43 + 45 x_1_44
      + 31 x_1_45 + 14 x_1_46 + 27 x_1_47 + 16 x_1_48 + 27 x_1_49 + 41 x_1_50
      + 40 x_1_51 + 45 x_1_52 + 44 x_1_53 + 50 x_1_54 + 14 x_1_55 + 19 x_1_56
      + 41 x_1_57 + 36 x_1_58 + 21 x_1_59 + 43 x_1_60 + 25 x_1_61 + 30 x_1_62
      + 42 x_1_63 + 20 x_1_64 + 48 x_1_65 + 17 x_1_66 + 34 x_1_67 + 12 x_1_68
      + 35 x_1_69 + 46 x_1_70 + 39 x_1_71 + 23 x_1_72 + 18 x_1_73 + 27 x_1_74
      + 28 x_1_75 + 19 x_1_76 + 41 x_1_77 + 12 x_1_78 + 39 x_1_79 + 12 x_1_80
      + 13 x_1_81 + 42 x_1_82 + 39 x_1_83 + 42 x_1_84 + 50 x_1_85 + 41 x_1_86
      + 19 x_1_87 + 42 x_1_88 + 26 x_1_89 + 21 x_1_90 + 17 x_1_91 + 46 x_1_92
      + 23 x_1_93 + 48 x_1_94 + 40 x_1_95 + 17 x_1_96 + 23 x_1_97 + 49 x_1_98
      + 10 x_1_99 + 40 x_2_0 + 45 x_2_1 + 27 x_2_2 + 33 x_2_3 + 16 x_2_4
      + 19 x_2_5 + 13 x_2_6 + 20 x_2_7 + 19 x_2_8 + 21 x_2_9 + 17 x_2_10
      + 48 x_2_11 + 24 x_2_12 + 28 x_2_13 + 18 x_2_14 + 19 x_2_15 + 49 x_2_16
      + 39 x_2_17 + 38 x_2_18 + 35 x_2_19 + 44 x_2_20 + 45 x_2_21 + 12 x_2_22
      + 39 x_2_23 + 39 x_2_24 + 21 x_2_25 + 49 x_2_26 + 38 x_2_27 + 15 x_2_28
      + 26 x_2_29 + 32 x_2_30 + 12 x_2_31 + 19 x_2_32 + 27 x_2_33 + 38 x_2_34
      + 12 x_2_35 + 40 x_2_36 + 29 x_2_37 + 17 x_2_38 + 11 x_2_39 + 24 x_2_40
      + 23 x_2_41 + 50 x_2_42 + 40 x_2_43 + 10 x_2_44 + 16 x_2_45 + 47 x_2_46
      + 45 x_2_47 + 31 x_2_48 + 12 x_2_49 + 23 x_2_50 + 20 x_2_51 + 25 x_2_52
      + 23 x_2_53 + 27 x_2_54 + 40 x_2_55 + 44 x_2_56 + 34 x_2_57 + 48 x_2_58
      + 43 x_2_59 + 48 x_2_60 + 37 x_2_61 + 31 x_2_62 + 34 x_2_63 + 19 x_2_64
      + 45 x_2_65 + 35 x_2_66 + 17 x_2_67 + 27 x_2_68 + 30 x_2_69 + 21 x_2_70
      + 27 x_2_71 + 17 x_2_72 + 25 x_2_73 + 42 x_2_74 + 40 x_2_75 + 35 x_2_76
      + 34 x_2_77 + 19 x_2_78 + 39 x_2_79 + 39 x_2_80 + 14 x_2_81 + 13 x_2_82
      + 17 x_2_83 + 10 x_2_84 + 40 x_2_85 + 13 x_2_86 + 34 x_2_87 + 46 x_2_88
      + 46 x_2_89 + 16 x_2_90 + 17 x_2_91 + 49 x_2_92 + 23 x_2_93 + 45 x_2_94
      + 49 x_2_95 + 32 x_2_96 + 49 x_2_97 + 12 x_2_98 + 47 x_2_99 + 14 x_3_0
      + 31 x_3_1 + 22 x_3_2 + 29 x_3_3 + 28 x_3_4 + 17 x_3_5 + 40 x_3_6
      + 31 x_3_7 + 24 x_3_8 + 42 x_3_9 + 39 x_3_10 + 23 x_3_11 + 47 x_3_12
      + 22 x_3_13 + 17 x_3_14 + 22 x_3_15 + 48 x_3_16 + 40 x_3_17 + 14 x_3_18
      + 11 x_3_19 + 36 x_3_20 + 50 x_3_21 + 37 x_3_22 + 44 x_3_23 + 16 x_3_24
      + 23 x_3_25 + 43 x_3_26 + 47 x_3_27 + 12 x_3_28 + 38 x_3_29 + 37 x_3_30
      + 18 x_3_31 + 22 x_3_32 + 34 x_3_33 + 30 x_3_34 + 38 x_3_35 + 48 x_3_36
      + 35 x_3_37 + 45 x_3_38 + 37 x_3_39 + 50 x_3_40 + 32 x_3_41 + 24 x_3_42
      + 40 x_3_43 + 32 x_3_44 + 19 x_3_45 + 40 x_3_46 + 32 x_3_47 + 49 x_3_48
      + 36 x_3_49 + 47 x_3_50 + 24 x_3_51 + 47 x_3_52 + 46 x_3_53 + 27 x_3_54
      + 46 x_3_55 + 15 x_3_56 + 22 x_3_57 + 11 x_3_58 + 39 x_3_59 + 40 x_3_60
      + 22 x_3_61 + 50 x_3_62 + 49 x_3_63 + 12 x_3_64 + 27 x_3_65 + 28 x_3_66
      + 14 x_3_67 + 32 x_3_68 + 45 x_3_69 + 10 x_3_70 + 37 x_3_71 + 46 x_3_72
      + 27 x_3_73 + 28 x_3_74 + 28 x_3_75 + 15 x_3_76 + 38 x_3_77 + 38 x_3_78
      + 44 x_3_79 + 29 x_3_80 + 31 x_3_81 + 21 x_3_82 + 20 x_3_83 + 36 x_3_84
      + 45 x_3_85 + 18 x_3_86 + 22 x_3_87 + 10 x_3_88 + 37 x_3_89 + 30 x_3_90
      + 14 x_3_91 + 39 x_3_92 + 19 x_3_93 + 24 x_3_94 + 12 x_3_95 + 14 x_3_96
      + 26 x_3_97 + 13 x_3_98 + 15 x_3_99 + 19 x_4_0 + 20 x_4_1 + 45 x_4_2
      + 11 x_4_3 + 10 x_4_4 + 35 x_4_5 + 37 x_4_6 + 25 x_4_7 + 23 x_4_8
      + 41 x_4_9 + 44 x_4_10 + 10 x_4_11 + 27 x_4_12 + 18 x_4_13 + 22 x_4_14
      + 49 x_4_15 + 45 x_4_16 + 26 x_4_17 + 34 x_4_18 + 12 x_4_19 + 33 x_4_20
      + 30 x_4_21 + 30 x_4_22 + 20 x_4_23 + 15 x_4_24 + 13 x_4_25 + 49 x_4_26
      + 23 x_4_27 + 38 x_4_28 + 38 x_4_29 + 37 x_4_30 + 41 x_4_31 + 12 x_4_32
      + 26 x_4_33 + 50 x_4_34 + 20 x_4_35 + 47 x_4_36 + 13 x_4_37 + 48 x_4_38
      + 50 x_4_39 + 44 x_4_40 + 38 x_4_41 + 42 x_4_42 + 46 x_4_43 + 27 x_4_44
      + 16 x_4_45 + 27 x_4_46 + 16 x_4_47 + 38 x_4_48 + 16 x_4_49 + 13 x_4_50
      + 14 x_4_51 + 16 x_4_52 + 34 x_4_53 + 39 x_4_54 + 44 x_4_55 + 19 x_4_56
      + 41 x_4_57 + 47 x_4_58 + 34 x_4_59 + 39 x_4_60 + 17 x_4_61 + 44 x_4_62
      + 24 x_4_63 + 19 x_4_64 + 14 x_4_65 + 40 x_4_66 + 38 x_4_67 + 40 x_4_68
      + 31 x_4_69 + 37 x_4_70 + 16 x_4_71 + 29 x_4_72 + 50 x_4_73 + 50 x_4_74
      + 22 x_4_75 + 36 x_4_76 + 36 x_4_77 + 29 x_4_78 + 49 x_4_79 + 23 x_4_80
      + 13 x_4_81 + 49 x_4_82 + 25 x_4_83 + 40 x_4_84 + 30 x_4_85 + 16 x_4_86
      + 50 x_4_87 + 27 x_4_88 + 25 x_4_89 + 11 x_4_90 + 36 x_4_91 + 36 x_4_92
      + 28 x_4_93 + 33 x_4_94 + 43 x_4_95 + 50 x_4_96 + 24 x_4_97 + 24 x_4_98
      + 43 x_4_99
Subject To
 task_0: x_0_0 + x_1_0 + x_2_0 + x_3_0 + x_4_0 = 1
 task_1: x_0_1 + x_1_1 + x_2_1 + x_3_1 + x_4_1 = 1
 task_2: x_0_2 + x_1_2 + x_2_2 + x_3_2 + x_4_2 = 1
 task_3: x_0_3 + x_1_3 + x_2_3 + x_3_3 + x_4_3 = 1
 task_4: x_0_4 + x_1_4 + x_2_4 + x_3_4 + x_4_4 = 1
 task_5: x_0_5 + x_1_5 + x_2_5 + x_3_5 + x_4_5 = 1
 task_6: x_0_6 + x_1_6 + x_2_6 + x_3_6 + x_4_6 = 1
 task_7: x_0_7 + x_1_7 + x_2_7 + x_3_7 + x_4_7 = 1
 task_8: x_0_8 + x_1_8 + x_2_8 + x_3_8 + x_4_8 = 1
 task_9: x_0_9 + x_1_9 + x_2_9 + x_3_9 + x_4_9 = 1
 task_10: x_0_10 + x_1_10 + x_2_10 + x_3_10 + x_4_10 = 1
 task_11: x_0_11 + x_1_11 + x_2_11 + x_3_11 + x_4_11 = 1
 task_12: x_0_12 + x_1_12 + x_2_12 + x_3_12 + x_4_12 = 1
 task_13: x_0_13 + x_1_13 + x_2_13 + x_3_13 + x_4_13 = 1
 task_14: x_0_14 + x_1_14 + x_2_14 + x_3_14 + x_4_14 = 1
 task_15: x_0_15 + x_1_15 + x_2_15 + x_3_15 + x_4_15 = 1
 task_16: x_0_16 + x_1_16 + x_2_16 + x_3_16 + x_4_16 = 1
 task_17: x_0_17 + x_1_17 + x_2_17 + x_3_17 + x_4_17 = 1
 task_18: x_0_18 + x_1_18 + x_2_18 + x_3_18 + x_4_18 = 1
 task_19: x_0_19 + x_1_19 + x_2_19 + x_3_19 + x_4_19 = 1
 task_20: x_0_20 + x_1_20 + x_2_20 + x_3_20 + x_4_20 = 1
 task_21: x_0_21 + x_1_21 + x_2_21 + x_3_21 + x_4_21 = 1
 task_22: x_0_22 + x_1_22 + x_2_22 + x_3_22 + x_4_22 = 1
 task_23: x_0_23 + x_1_23 + x_2_23 + x_3_23 + x_4_23 = 1
 task_24: x_0_24 + x_1_24 + x_2_24 + x_3_24 + x_4_24 = 1
 task_25: x_0_25 + x_1_25 + x_2_25 + x_3_25 + x_4_25 = 1
 task_26: x_0_26 + x_1_26 + x_2_26 + x_3_26 + x_4_26 = 1
 task_27: x_0_27 + x_1_27 + x_2_27 + x_3_27 + x_4_27 = 1
 task_28: x_0_28 + x_1_28 + x_2_28 + x_3_28 + x_4_28 = 1
 task_29: x_0_29 + x_1_29 + x_2_29 + x_3_29 + x_4_29 = 1
 task_30: x_0_30 + x_1_30 + x_2_30 + x_3_30 + x_4_30 = 1
 task_31: x_0_31 + x_1_31 + x_2_31 + x_3_31 + x_4_31 = 1
 task_32: x_0_32 + x_1_32 + x_2_32 + x_3_32 + x_4_32 = 1
 task_33: x_0_33 + x_1_33 + x_2_33 + x_3_33 + x_4_33 = 1
 task_34: x_0_34 + x_1_34 + x_2_34 + x_3_34 + x_4_34 = 1
 task_35: x_0_35 + x_1_35 + x_2_35 + x_3_35 + x_4_35 = 1
 task_36: x_0_36 + x_1_36 + x_2_36 + x_3_36 + x_4_36 = 1
 task_37: x_0_37 + x_1_37 + x_2_37 + x_3_37 + x_4_37 = 1
 task_38: x_0_38 + x_1_38 + x_2_38 + x_3_38 + x_4_38 = 1
 task_39: x_0_39 + x_1_39 + x_2_39 + x_3_39 + x_4_39 = 1
 task_40: x_0_40 + x_1_40 + x_2_40 + x_3_40 + x_4_40 = 1
 task_41: x_0_41 + x_1_41 + x_2_41 + x_3_41 + x_4_41 = 1
 task_42: x_0_42 + x_1_42 + x_2_42 + x_3_42 + x_4_42 = 1
 task_43: x_0_43 + x_1_43 + x_2_43 + x_3_43 + x_4_43 = 1
 task_44: x_0_44 + x_1_44 + x_2_44 + x_3_44 + x_4_44 = 1
 task_45: x_0_45 + x_1_45 + x_2_45 + x_3_45 + x_4_45 = 1
 task_46: x_0_46 + x_1_46 + x_2_46 + x_3_46 + x_4_46 = 1
 task_47: x_0_47 + x_1_47 + x_2_47 + x_3_47 + x_4_47 = 1
 task_48: x_0_48 + x_1_48 + x_2_48 + x_3_48 + x_4_48 = 1
 task_49: x_0_49 + x_1_49 + x_2_49 + x_3_49 + x_4_49 = 1
 task_50: x_0_50 + x_1_50 + x_2_50 + x_3_50 + x_4_50 = 1
 task_51: x_0_51 + x_1_51 + x_2_51 + x_3_51 + x_4_51 = 1
 task_52: x_0_52 + x_1_52 + x_2_52 + x_3_52 + x_4_52 = 1
 task_53: x_0_53 + x_1_53 + x_2_53 + x_3_53 + x_4_53 = 1
 task_54: x_0_54 + x_1_54 + x_2_54 + x_3_54 + x_4_54 = 1
 task_55: x_0_55 + x_1_55 + x_2_55 + x_3_55 + x_4_55 = 1
 task_56: x_0_56 + x_1_56 + x_2_56 + x_3_56 + x_4_56 = 1
 task_57: x_0_57 + x_1_57 + x_2_57 + x_3_57 + x_4_57 = 1
 task_58: x_0_58 + x_1_58 + x_2_58 + x_3_58 + x_4_58 = 1
 task_59: x_0_59 + x_1_59 + x_2_59 + x_3_59 + x_4_59 = 1
 task_60: x_0_60 + x_1_60 + x_2_60 + x_3_60 + x_4_60 = 1
 task_61: x_0_61 + x_1_61 + x_2_61 + x_3_61 + x_4_61 = 1
 task_62: x_0_62 + x_1_62 + x_2_62 + x_3_62 + x_4_62 = 1
 task_63: x_0_63 + x_1_63 + x_2_63 + x_3_63 + x_4_63 = 1
 task_64: x_0_64 + x_1_64 + x_2_64 + x_3_64 + x_4_64 = 1
 task_65: x_0_65 + x_1_65 + x_2_65 + x_3_65 + x_4_65 = 1
 task_66: x_0_66 + x_1_66 + x_2_66 + x_3_66 + x_4_66 = 1
 task_67: x_0_67 + x_1_67 + x_2_67 + x_3_67 + x_4_67 = 1
 task_68: x_0_68 + x_1_68 + x_2_68 + x_3_68 + x_4_68 = 1
 task_69: x_0_69 + x_1_69 + x_2_69 + x_3_69 + x_4_69 = 1
 task_70: x_0_70 + x_1_70 + x_2_70 + x_3_70 + x_4_70 = 1
 task_71: x_0_71 + x_1_71 + x_2_71 + x_3_71 + x_4_71 = 1
 task_72: x_0_72 + x_1_72 + x_2_72 + x_3_72 + x_4_72 = 1
 task_73: x_0_73 + x_1_73 + x_2_73 + x_3_73 + x_4_73 = 1
 task_74: x_0_74 + x_1_74 + x_2_74 + x_3_74 + x_4_74 = 1
 task_75: x_0_75 + x_1_75 + x_2_75 + x_3_75 + x_4_75 = 1
 task_76: x_0_76 + x_1_76 + x_2_76 + x_3_76 + x_4_76 = 1
 task_77: x_0_77 + x_1_77 + x_2_77 + x_3_77 + x_4_77 = 1
 task_78: x_0_78 + x_1_78 + x_2_78 + x_3_78 + x_4_78 = 1
 task_79: x_0_79 + x_1_79 + x_2_79 + x_3_79 + x_4_79 = 1
 task_80: x_0_80 + x_1_80 + x_2_80 + x_3_80 + x_4_80 = 1
 task_81: x_0_81 + x_1_81 + x_2_81 + x_3_81 + x_4_81 = 1
 task_82: x_0_82 + x_1_82 + x_2_82 + x_3_82 + x_4_82 = 1
 task_83: x_0_83 + x_1_83 + x_2_83 + x_3_83 + x_4_83 = 1
 task_84: x_0_84 + x_1_84 + x_2_84 + x_3_84 + x_4_84 = 1
 task_85: x_0_85 + x_1_85 + x_2_85 + x_3_85 + x_4_85 = 1
 task_86: x_0_86 + x_1_86 + x_2_86 + x_3_86 + x_4_86 = 1
 task_87: x_0_87 + x_1_87 + x_2_87 + x_3_87 + x_4_87 = 1
 task_88: x_0_88 + x_1_88 + x_2_88 + x_3_88 + x_4_88 = 1
 task_89: x_0_89 + x_1_89 + x_2_89 + x_3_89 + x_4_89 = 1
 task_90: x_0_90 + x_1_90 + x_2_90 + x_3_90 + x_4_90 = 1
 task_91: x_0_91 + x_1_91 + x_2_91 + x_3_91 + x_4_91 = 1
 task_92: x_0_92 + x_1_92 + x_2_92 + x_3_92 + x_4_92 = 1
 task_93: x_0_93 + x_1_93 + x_2_93 + x_3_93 + x_4_93 = 1
 task_94: x_0_94 + x_1_94 + x_2_94 + x_3_94 + x_4_94 = 1
 task_95: x_0_95 + x_1_95 + x_2_95 + x_3_95 + x_4_95 = 1
 task_96: x_0_96 + x_1_96 + x_2_96 + x_3_96 + x_4_96 = 1
 task_97: x_0_97 + x_1_97 + x_2_97 + x_3_97 + x_4_97 = 1
 task_98: x_0_98 + x_1_98 + x_2_98 + x_3_98 + x_4_98 = 1
 task_99: x_0_99 + x_1_99 + x_2_99 + x_3_99 + x_4_99 = 1
 capacity_0: 7 x_0_0 + 16 x_0_1 + 18 x_0_2 + 15 x_0_3 + 17 x_0_4 + 10 x_0_5
             + 17 x_0_6 + 11 x_0_7 + 19 x_0_8 + 6 x_0_9 + 5 x_0_10 + 19 x_0_11
             + 21 x_0_12 + 19 x_0_13 + 23 x_0_14 + 12 x_0_15 + 7 x_0_16
             + 5 x_0_17 + 21 x_0_18 + 20 x_0_19 + 23 x_0_20 + 12 x_0_21
             + 22 x_0_22 + 6 x_0_23 + 14 x_0_24 + 17 x_0_25 + 24 x_0_26
             + 25 x_0_27 + 22 x_0_28 + 8 x_0_29 + 13 x_0_30 + 7 x_0_31
             + 24 x_0_32 + 11 x_0_33 + 8 x_0_34 + 22 x_0_35 + 15 x_0_36
             + 24 x_0_37 + 15 x_0_38 + 18 x_0_39 + 23 x_0_40 + 11 x_0_41
             + 17 x_0_42 + 16 x_0_43 + 6 x_0_44 + 21 x_0_45 + 21 x_0_46
             + 9 x_0_47 + 24 x_0_48 + 9 x_0_49 + 22 x_0_50 + 9 x_0_51
             + 25 x_0_52 + 6 x_0_53 + 8 x_0_54 + 8 x_0_55 + 16 x_0_56
             + 12 x_0_57 + 24 x_0_58 + 6 x_0_59 + 12 x_0_60 + 13 x_0_61
             + 18 x_0_62 + 18 x_0_63 + 8 x_0_64 + 20 x_0_65 + 22 x_0_66
             + 5 x_0_67 + 15 x_0_68 + 13 x_0_69 + 9 x_0_70 + 11 x_0_71
             + 11 x_0_72 + 11 x_0_73 + 8 x_0_74 + 7 x_0_75 + 5 x_0_76
             + 14 x_0_77 + 19 x_0_78 + 12 x_0_79 + 17 x_0_80 + 9 x_0_81
             + 16 x_0_82 + 18 x_0_83 + 12 x_0_84 + 6 x_0_85 + 10 x_0_86
             + 5 x_0_87 + 18 x_0_88 + 21 x_0_89 + 24 x_0_90 + 9 x_0_91
             + 9 x_0_92 + 19 x_0_93 + 5 x_0_94 + 8 x_0_95 + 18 x_0_96 + 8 x_0_97
             + 25 x_0_98 + 21 x_0_99 <= 209
 capacity_1: 9 x_1_0 + 17 x_1_1 + 13 x_1_2 + 18 x_1_3 + 7 x_1_4 + 14 x_1_5
             + 22 x_1_6 + 16 x_1_7 + 6 x_1_8 + 10 x_1_9 + 13 x_1_10 + 15 x_1_11
             + 10 x_1_12 + 25 x_1_13 + 12 x_1_14 + 13 x_1_15 + 18 x_1_16
             + 15 x_1_17 + 19 x_1_18 + 14 x_1_19 + 17 x_1_20 + 25 x_1_21
             + 19 x_1_22 + 24 x_1_23 + 11 x_1_24 + 10 x_1_25 + 19 x_1_26
             + 13 x_1_27 + 20 x_1_28 + 23 x_1_29 + 9 x_1_30 + 13 x_1_31
             + 13 x_1_32 + 17 x_1_33 + 14 x_1_34 + 22 x_1_35 + 24 x_1_36
             + 19 x_1_37 + 25 x_1_38 + 17 x_1_39 + 15 x_1_40 + 5 x_1_41
             + 12 x_1_42 + 10 x_1_43 + 19 x_1_44 + 23 x_1_45 + 7 x_1_46
             + 17 x_1_47 + 19 x_1_48 + 15 x_1_49 + 21 x_1_50 + 6 x_1_51
             + 25 x_1_52 + 20 x_1_53 + 10 x_1_54 + 7 x_1_55 + 15 x_1_56
             + 16 x_1_57 + 17 x_1_58 + 23 x_1_59 + 17 x_1_60 + 19 x_1_61
             + 18 x_1_62 + 16 x_1_63 + 22 x_1_64 + 20 x_1_65 + 19 x_1_66
             + 7 x_1_67 + 8 x_1_68 + 19 x_1_69 + 12 x_1_70 + 13 x_1_71
             + 21 x_1_72 + 20 x_1_73 + 25 x_1_74 + 9 x_1_75 + 9 x_1_76
             + 11 x_1_77 + 7 x_1_78 + 15 x_1_79 + 12 x_1_80 + 15 x_1_81
             + 20 x_1_82 + 18 x_1_83 + 22 x_1_84 + 18 x_1_85 + 5 x_1_86
             + 11 x_1_87 + 22 x_1_88 + 7 x_1_89 + 16 x_1_90 + 9 x_1_91
             + 21 x_1_92 + 10 x_1_93 + 18 x_1_94 + 11 x_1_95 + 15 x_1_96
             + 17 x_1_97 + 10 x_1_98 + 20 x_1_99 <= 209
 capacity_2: 18 x_2_0 + 24 x_2_1 + 6 x_2_2 + 18 x_2_3 + 16 x_2_4 + 18 x_2_5
             + 15 x_2_6 + 23 x_2_7 + 19 x_2_8 + 9 x_2_9 + 21 x_2_10 + 7 x_2_11
             + 17 x_2_12 + 9 x_2_13 + 19 x_2_14 + 22 x_2_15 + 23 x_2_16
             + 5 x_2_17 + 21 x_2_18 + 9 x_2_19 + 14 x_2_20 + 21 x_2_21
             + 9 x_2_22 + 23 x_2_23 + 15 x_2_24 + 24 x_2_25 + 22 x_2_26
             + 12 x_2_27 + 12 x_2_28 + 24 x_2_29 + 6 x_2_30 + 20 x_2_31
             + 23 x_2_32 + 15 x_2_33 + 15 x_2_34 + 14 x_2_35 + 12 x_2_36
             + 9 x_2_37 + 24 x_2_38 + 20 x_2_39 + 19 x_2_40 + 9 x_2_41
             + 7 x_2_42 + 20 x_2_43 + 13 x_2_44 + 14 x_2_45 + 14 x_2_46
             + 10 x_2_47 + 13 x_2_48 + 21 x_2_49 + 18 x_2_50 + 12 x_2_51
             + 16 x_2_52 + 19 x_2_53 + 5 x_2_54 + 14 x_2_55 + 17 x_2_56
             + 20 x_2_57 + 13 x_2_58 + 22 x_2_59 + 16 x_2_60 + 19 x_2_61
             + 5 x_2_62 + 11 x_2_63 + 25 x_2_64 + 10 x_2_65 + 13 x_2_66
             + 13 x_2_67 + 6 x_2_68 + 6 x_2_69 + 9 x_2_70 + 13 x_2_71
             + 10 x_2_72 + 22 x_2_73 + 10 x_2_74 + 9 x_2_75 + 5 x_2_76
             + 13 x_2_77 + 21 x_2_78 + 16 x_2_79 + 11 x_2_80 + 20 x_2_81
             + 5 x_2_82 + 13 x_2_83 + 12 x_2_84 + 5 x_2_85 + 11 x_2_86
             + 11 x_2_87 + 14 x_2_88 + 14 x_2_89 + 18 x_2_90 + 8 x_2_91
             + 9 x_2_92 + 8 x_2_93 + 20 x_2_94 + 15 x_2_95 + 17 x_2_96
             + 21 x_2_97 + 25 x_2_98 + 15 x_2_99 <= 209
 capacity_3: 14 x_3_0 + 7 x_3_1 + 7 x_3_2 + 9 x_3_3 + 9 x_3_4 + 7 x_3_5
             + 23 x_3_6 + 21 x_3_7 + 19 x_3_8 + 11 x_3_9 + 10 x_3_10 + 9 x_3_11
             + 5 x_3_12 + 11 x_3_13 + 19 x_3_14 + 20 x_3_15 + 12 x_3_16
             + 12 x_3_17 + 10 x_3_18 + 25 x_3_19 + 6 x_3_20 + 17 x_3_21
             + 12 x_3_22 + 16 x_3_23 + 19 x_3_24 + 20 x_3_25 + 19 x_3_26
             + 12 x_3_27 + 5 x_3_28 + 14 x_3_29 + 17 x_3_30 + 11 x_3_31
             + 15 x_3_32 + 14 x_3_33 + 9 x_3_34 + 18 x_3_35 + 20 x_3_36
             + 25 x_3_37 + 21 x_3_38 + 11 x_3_39 + 18 x_3_40 + 20 x_3_41
             + 13 x_3_42 + 23 x_3_43 + 18 x_3_44 + 17 x_3_45 + 21 x_3_46
             + 6 x_3_47 + 5 x_3_48 + 12 x_3_49 + 24 x_3_50 + 22 x_3_51
             + 6 x_3_52 + 12 x_3_53 + 17 x_3_54 + 11 x_3_55 + 12 x_3_56
             + 5 x_3_57 + 11 x_3_58 + 25 x_3_59 + 6 x_3_60 + 8 x_3_61 + 7 x_3_62
             + 21 x_3_63 + 9 x_3_64 + 13 x_3_65 + 25 x_3_66 + 5 x_3_67
             + 20 x_3_68 + 24 x_3_69 + 11 x_3_70 + 25 x_3_71 + 14 x_3_72
             + 14 x_3_73 + 13 x_3_74 + 5 x_3_75 + 22 x_3_76 + 15 x_3_77
             + 22 x_3_78 + 18 x_3_79 + 23 x_3_80 + 5 x_3_81 + 7 x_3_82
             + 9 x_3_83 + 17 x_3_84 + 18 x_3_85 + 23 x_3_86 + 16 x_3_87
             + 19 x_3_88 + 24 x_3_89 + 21 x_3_90 + 11 x_3_91 + 10 x_3_92
             + 20 x_3_93 + 19 x_3_94 + 14 x_3_95 + 19 x_3_96 + 16 x_3_97
             + 17 x_3_98 + 22 x_3_99 <= 209
 capacity_4: 21 x_4_0 + 11 x_4_1 + 6 x_4_2 + 14 x_4_3 + 16 x_4_4 + 12 x_4_5
             + 12 x_4_6 + 6 x_4_7 + 22 x_4_8 + 18 x_4_9 + 16 x_4_10 + 8 x_4_11
             + 18 x_4_12 + 13 x_4_13 + 16 x_4_14 + 16 x_4_15 + 13 x_4_16
             + 8 x_4_17 + 23 x_4_18 + 18 x_4_19 + 11 x_4_20 + 15 x_4_21
             + 6 x_4_22 + 11 x_4_23 + 17 x_4_24 + 17 x_4_25 + 20 x_4_26
             + 8 x_4_27 + 9 x_4_28 + 17 x_4_29 + 11 x_4_30 + 11 x_4_31
             + 22 x_4_32 + 6 x_4_33 + 24 x_4_34 + 24 x_4_35 + 17 x_4_36
             + 20 x_4_37 + 11 x_4_38 + 16 x_4_39 + 15 x_4_40 + 11 x_4_41
             + 9 x_4_42 + 21 x_4_43 + 6 x_4_44 + 24 x_4_45 + 21 x_4_46
             + 6 x_4_47 + 25 x_4_48 + 9 x_4_49 + 21 x_4_50 + 15 x_4_51
             + 21 x_4_52 + 6 x_4_53 + 8 x_4_54 + 23 x_4_55 + 21 x_4_56
             + 23 x_4_57 + 7 x_4_58 + 12 x_4_59 + 7 x_4_60 + 17 x_4_61
             + 25 x_4_62 + 21 x_4_63 + 18 x_4_64 + 5 x_4_65 + 11 x_4_66
             + 6 x_4_67 + 10 x_4_68 + 24 x_4_69 + 25 x_4_70 + 22 x_4_71
             + 11 x_4_72 + 16 x_4_73 + 9 x_4_74 + 7 x_4_75 + 5 x_4_76 + 8 x_4_77
             + 9 x_4_78 + 7 x_4_79 + 8 x_4_80 + 24 x_4_81 + 6 x_4_82 + 15 x_4_83
             + 24 x_4_84 + 7 x_4_85 + 19 x_4_86 + 25 x_4_87 + 5 x_4_88
             + 16 x_4_89 + 6 x_4_90 + 23 x_4_91 + 20 x_4_92 + 18 x_4_93
             + 15 x_4_94 + 15 x_4_95 + 14 x_4_96 + 15 x_4_97 + 20 x_4_98
             + 25 x_4_99 <= 209

Bounds
End
